%SETS
JOBS = 1..12;
MACHINES = 1..12;
SPEED    = 1;

time = array3d(JOBS,MACHINES,1..SPEED,time = [12, 1, 8, 62, 6, 15, 69, 1, 23, 77, 6, 20, 62, 3, ... ] // array too long to display, dimensions: (144)
);
energy = array3d(JOBS,MACHINES,1..SPEED,energy = [88, 99, 92, 53, 94, 86, 50, 99, 79, 46, 94, 81, 53... ] // array too long to display, dimensions: (144)
);
precedence = array2d(JOBS,MACHINES,precedence = [9, 3, 1, 4, 7, 6, 2, 5, 8, 11, 10, 0, 9, 0, 6, 2, 10, 3, 5, 8, 1, 4, 11, 7, 4, 6... ] // array too long to display, dimensions: (144)
);